2
4
40
1 1.3 1.55 1.75 2.1
41 44 45 12 31 28 30 42 22 18 42 20 48 12 15 41 10 34 43 33 37 14 48 20 31 33 22 16 9 47 31 22 16 32 16 23 19 12 18 18 8 27 23 49 39 47 21 34 27 23 16 41 42 5 25 10 5 28 10 16 24 12 38 46 33 46 46 8 38 16 45 49 42 36 45 41 22 5 16 41 40 31 6 18 41 42 44 29 47 25 36 27 37 28 37 29 32 21 29 25 38 48 40 43 14 22 25 27 47 27 13 5 42 17 21 48 38 37 26 41 19 44 47 28 14 35 17 16 24 43 15 44 19 20 41 23 32 16 33 43 32 45 37 9 16 8 29 15 5 18 15 38 10 33 14 37 18 21 12 19 